Solving original (integer) problem with strategy gdp.hull_exact_conic_no_cholesky...
--- Job model.gms Start 02/15/26 22:47:16 52.2.0 d8e408be LEX-LEG x86 64bit/Linux
--- Applying:
    /package/gams/52.2/gmsprmun.txt
--- GAMS Parameters defined
    Input /local/scratch/a/sgusev/repos/k_means/data/gams_scip_gdp.hull_exact_conic_no_cholesky/no_mode/2026-02-15_22-47-16/original/model.gms
    Output /local/scratch/a/sgusev/repos/k_means/data/gams_scip_gdp.hull_exact_conic_no_cholesky/no_mode/2026-02-15_22-47-16/original/output.lst
    ScrDir /local/scratch/a/sgusev/repos/k_means/data/gams_scip_gdp.hull_exact_conic_no_cholesky/no_mode/2026-02-15_22-47-16/original/225a/
    SysDir /package/gams/52.2/
    CurDir /local/scratch/a/sgusev/repos/k_means/data/gams_scip_gdp.hull_exact_conic_no_cholesky/no_mode/2026-02-15_22-47-16/original/
    LogOption 3
    AppendLog 1
Licensee: David Bernal / SECQUOIA Research Group         G251008+0003Ac-GEN
          Purdue University, Davidson School of Chemical EngineeringDCE4838
          225a/gamslice.dat
          5a82958a-fbca-4a23
          node:66820903 mem:995 cores:48 ipport:34097 v:2                  
          Evaluation license: Not for commercial or production use
          The time-limited license stops working on : Jun 30, 2027
System information: 48 physical cores and 995 Gb physical memory detected
GAMS 52.2.0   Copyright (C) 1987-2025 GAMS Development. All rights reserved
--- Starting compilation
--- model.gms(3044) 2 Mb
--- $echo File /local/scratch/a/sgusev/repos/k_means/data/gams_scip_gdp.hull_exact_conic_no_cholesky/no_mode/2026-02-15_22-47-16/original/scip.opt
--- model.gms(4512) 2 Mb
--- Starting execution: elapsed 0:00:00.016
--- model.gms(3054) 3 Mb
--- Generating MINLP model GAMS_MODEL
--- model.gms(3058) 6 Mb
---   925 rows  476 columns  2,429 non-zeroes
---   650 nl-code  250 nl-non-zeroes
---   50 discrete-columns
--- Range statistics (absolute non-zero finite values)
--- RHS       [min, max] : [ 1.000E+00, 1.000E+00] - Zero values observed as well
--- Bound     [min, max] : [ 1.000E+00, 6.000E+01] - Zero values observed as well
--- Matrix    [min, max] : [ 8.573E-02, 6.000E+01] - Zero values observed as well
--- model.gms(3058) 4 Mb
--- Executing SCIP (Solvelink=5): elapsed 0:00:00.022

SCIP             52.2.0 d8e408be Dec 8, 2025           LEG x86 64bit/Linux    
SCIP version 9.2.4 (a94f778ac8)
Copyright (c) 2002-2025 Zuse Institute Berlin (ZIB)

External libraries: 
  CPLEX 22.1.2.0       Linear Programming Solver developed by IBM (www.cplex.com)
  CppAD 20180000.0     Algorithmic Differentiation of C++ algorithms developed by B. Bell (github.com/coin-or/CppAD)
  PaPILO 2.4.4         parallel presolve for integer and linear optimization (github.com/scipopt/papilo) (built with TBB) [GitHash: 7c826d50]
  Nauty 2.8.9          Computing Graph Automorphism Groups by Brendan D. McKay (users.cecs.anu.edu.au/~bdm/nauty)
  sassy 1.1            Symmetry preprocessor by Markus Anders (github.com/markusa4/sassy)
  Ipopt 3.14.19        Interior Point Optimizer developed by A. Waechter et.al. (github.com/coin-or/Ipopt)

reading option file /local/scratch/a/sgusev/repos/k_means/data/gams_scip_gdp.hull_exact_conic_no_cholesky/no_mode/2026-02-15_22-47-16/original/scip.opt
non-default parameter settings:
limits/time = 300
limits/gap = 1e-06
limits/absgap = 1e-10
lp/threads = 1
misc/printreason = FALSE
numerics/dualfeastol = 1e-06
parallel/maxnthreads = 1
nlpi/ipopt/linear_solver = "ma27"
nlpi/ipopt/linear_system_scaling = "mc19"

original problem has 475 variables (50 bin, 0 int, 425 cont) and 924 constraints

all 1 solutions given by solution candidate storage are infeasible

presolving:
(round 1, fast)       10 del vars, 0 del conss, 0 add conss, 50 chg bounds, 0 chg sides, 0 chg coeffs, 0 upgd conss, 0 impls, 10 clqs
(round 2, fast)       10 del vars, 0 del conss, 0 add conss, 50 chg bounds, 10 chg sides, 0 chg coeffs, 0 upgd conss, 0 impls, 10 clqs
(round 3, exhaustive) 10 del vars, 0 del conss, 0 add conss, 50 chg bounds, 10 chg sides, 0 chg coeffs, 660 upgd conss, 0 impls, 10 clqs
   (0.0s) probing cycle finished: starting next cycle
   (0.0s) symmetry computation started: requiring (bin +, int +, cont +), (fixed: bin -, int -, cont -)
   (0.0s) no symmetry present (symcode time: 0.00)
presolving (4 rounds: 4 fast, 2 medium, 2 exhaustive):
 10 deleted vars, 0 deleted constraints, 0 added constraints, 50 tightened bounds, 0 added holes, 10 changed sides, 0 changed coefficients
 2300 implications, 10 cliques
presolved problem has 465 variables (50 bin, 0 int, 0 impl, 415 cont) and 924 constraints
    650 constraints of type <varbound>
     10 constraints of type <setppc>
    214 constraints of type <linear>
     50 constraints of type <nonlinear>
Presolving Time: 0.02

 time | node  | left  |LP iter|LP it/n|mem/heur|mdpt |vars |cons |rows |cuts |sepa|confs|strbr|  dualbound   | primalbound  |  gap   | compl. 
  0.1s|     1 |     0 |   656 |     - |  9698k |   0 | 715 | 924 |1474 |   0 |  0 |   0 |   0 | 0.000000e+00 |      --      |    Inf | unknown
o 0.1s|     1 |     0 |   776 |     - |feaspump|   0 | 715 | 924 |1474 |   0 |  0 |   0 |   0 | 0.000000e+00 | 7.355695e+00 |    Inf | unknown
  0.1s|     1 |     0 |   936 |     - |    10M |   0 | 715 | 924 |1579 | 105 |  1 |   0 |   0 | 0.000000e+00 | 7.355695e+00 |    Inf | unknown
  0.1s|     1 |     0 |   936 |     - |    10M |   0 | 715 | 924 |1569 | 105 |  1 |   0 |   0 | 0.000000e+00 | 7.355695e+00 |    Inf | unknown
  0.2s|     1 |     0 |  1109 |     - |    11M |   0 | 715 | 924 |1693 | 229 |  2 |   0 |   0 | 0.000000e+00 | 7.355695e+00 |    Inf | unknown
  0.2s|     1 |     0 |  1261 |     - |    11M |   0 | 715 | 924 |1823 | 359 |  3 |   0 |   0 | 0.000000e+00 | 7.355695e+00 |    Inf | unknown
  0.2s|     1 |     0 |  1425 |     - |    11M |   0 | 715 | 924 |1920 | 456 |  4 |   0 |   0 | 0.000000e+00 | 7.355695e+00 |    Inf | unknown
  0.2s|     1 |     0 |  1591 |     - |    11M |   0 | 715 | 924 |2038 | 574 |  5 |   0 |   0 | 0.000000e+00 | 7.355695e+00 |    Inf | unknown
  0.3s|     1 |     0 |  1722 |     - |    12M |   0 | 715 | 924 |2137 | 673 |  6 |   0 |   0 | 0.000000e+00 | 7.355695e+00 |    Inf | unknown
  0.3s|     1 |     0 |  1888 |     - |    12M |   0 | 715 | 924 |2229 | 765 |  7 |   0 |   0 | 0.000000e+00 | 7.355695e+00 |    Inf | unknown
  0.3s|     1 |     0 |  2054 |     - |    12M |   0 | 715 | 924 |2319 | 855 |  8 |   0 |   0 | 0.000000e+00 | 7.355695e+00 |    Inf | unknown
  0.4s|     1 |     0 |  2288 |     - |    12M |   0 | 715 | 924 |2407 | 943 |  9 |   0 |   0 | 0.000000e+00 | 7.355695e+00 |    Inf | unknown
  0.4s|     1 |     0 |  2487 |     - |    13M |   0 | 715 | 924 |2489 |1025 | 10 |   0 |   0 | 0.000000e+00 | 7.355695e+00 |    Inf | unknown
  0.5s|     1 |     0 |  2739 |     - |    13M |   0 | 715 | 924 |1942 |1100 | 11 |   0 |   0 | 0.000000e+00 | 7.355695e+00 |    Inf | unknown
  0.5s|     1 |     0 |  2914 |     - |    14M |   0 | 715 | 924 |2016 |1174 | 12 |   0 |   0 | 0.000000e+00 | 7.355695e+00 |    Inf | unknown
 time | node  | left  |LP iter|LP it/n|mem/heur|mdpt |vars |cons |rows |cuts |sepa|confs|strbr|  dualbound   | primalbound  |  gap   | compl. 
  0.5s|     1 |     0 |  3045 |     - |    14M |   0 | 715 | 924 |2076 |1234 | 13 |   0 |   0 | 0.000000e+00 | 7.355695e+00 |    Inf | unknown
  0.5s|     1 |     0 |  3045 |     - |    14M |   0 | 715 | 914 |2076 |1234 | 13 |   0 |   0 | 0.000000e+00 | 7.355695e+00 |    Inf | unknown
  0.5s|     1 |     0 |  3252 |     - |    14M |   0 | 715 | 914 |2121 |1279 | 14 |   0 |   0 | 0.000000e+00 | 7.355695e+00 |    Inf | unknown
  0.5s|     1 |     0 |  3377 |     - |    14M |   0 | 715 | 914 |2162 |1320 | 15 |   0 |   0 | 0.000000e+00 | 7.355695e+00 |    Inf | unknown
  0.5s|     1 |     0 |  3450 |     - |    15M |   0 | 715 | 914 |2193 |1351 | 16 |   0 |   0 | 0.000000e+00 | 7.355695e+00 |    Inf | unknown
  0.6s|     1 |     0 |  3484 |     - |    15M |   0 | 715 | 914 |1610 |1366 | 17 |   0 |   0 | 0.000000e+00 | 7.355695e+00 |    Inf | unknown
  0.6s|     1 |     0 |  3500 |     - |    15M |   0 | 715 | 914 |1620 |1376 | 18 |   0 |   0 | 0.000000e+00 | 7.355695e+00 |    Inf | unknown
  0.6s|     1 |     0 |  3506 |     - |    15M |   0 | 715 | 914 |1624 |1380 | 19 |   0 |   0 | 0.000000e+00 | 7.355695e+00 |    Inf | unknown
  0.6s|     1 |     0 |  3510 |     - |    15M |   0 | 715 | 914 |1627 |1383 | 20 |   0 |   0 | 0.000000e+00 | 7.355695e+00 |    Inf | unknown
  0.6s|     1 |     0 |  3512 |     - |    15M |   0 | 715 | 914 |1629 |1385 | 21 |   0 |   0 | 0.000000e+00 | 7.355695e+00 |    Inf | unknown
  0.6s|     1 |     0 |  3515 |     - |    15M |   0 | 715 | 914 |1630 |1386 | 22 |   0 |   0 | 0.000000e+00 | 7.355695e+00 |    Inf | unknown
d 0.8s|     1 |     0 |  3699 |     - |    mpec|   0 | 715 | 914 |1630 |1386 | 23 |   0 |   0 | 0.000000e+00 | 4.305767e+00 |    Inf | unknown
  0.8s|     1 |     0 |  3699 |     - |    16M |   0 | 715 | 914 |1630 |1386 | 23 |   0 |   0 | 0.000000e+00 | 4.305767e+00 |    Inf | unknown
  0.9s|     1 |     0 |  3699 |     - |    16M |   0 | 715 | 914 |1630 |1386 | 24 |   0 |   3 | 0.000000e+00 | 4.305767e+00 |    Inf | unknown
  0.9s|     1 |     0 |  3699 |     - |    16M |   0 | 715 | 914 |1630 |1386 | 25 |   0 |   6 | 0.000000e+00 | 4.305767e+00 |    Inf | unknown
 time | node  | left  |LP iter|LP it/n|mem/heur|mdpt |vars |cons |rows |cuts |sepa|confs|strbr|  dualbound   | primalbound  |  gap   | compl. 
  1.0s|     1 |     0 |  3699 |     - |    16M |   0 | 715 | 914 |1630 |1386 | 26 |   0 |   9 | 0.000000e+00 | 4.305767e+00 |    Inf | unknown
  1.1s|     1 |     0 |  3699 |     - |    16M |   0 | 715 | 914 |1630 |1386 | 27 |   0 |  12 | 0.000000e+00 | 4.305767e+00 |    Inf | unknown
  1.1s|     1 |     0 |  3699 |     - |    16M |   0 | 715 | 914 |1630 |1386 | 28 |   0 |  15 | 0.000000e+00 | 4.305767e+00 |    Inf | unknown
  1.2s|     1 |     0 |  3699 |     - |    16M |   0 | 715 | 914 |1630 |1386 | 29 |   0 |  18 | 0.000000e+00 | 4.305767e+00 |    Inf | unknown
  1.3s|     1 |     0 |  3699 |     - |    16M |   0 | 715 | 914 |1630 |1386 | 30 |   0 |  21 | 0.000000e+00 | 4.305767e+00 |    Inf | unknown
  1.4s|     1 |     0 |  3699 |     - |    16M |   0 | 715 | 914 |1630 |1386 | 31 |   0 |  24 | 0.000000e+00 | 4.305767e+00 |    Inf | unknown
  1.4s|     1 |     0 |  3699 |     - |    16M |   0 | 715 | 914 |1630 |1386 | 32 |   0 |  27 | 0.000000e+00 | 4.305767e+00 |    Inf | unknown
  1.5s|     1 |     0 |  3699 |     - |    16M |   0 | 715 | 914 |1630 |1386 | 33 |   0 |  30 | 0.000000e+00 | 4.305767e+00 |    Inf | unknown
  1.6s|     1 |     0 |  3699 |     - |    16M |   0 | 715 | 914 |1630 |1386 | 34 |   0 |  32 | 0.000000e+00 | 4.305767e+00 |    Inf | unknown
  1.6s|     1 |     2 |  3699 |     - |    16M |   0 | 715 | 914 |1630 |1386 | 35 |   0 |  32 | 0.000000e+00 | 4.305767e+00 |    Inf | unknown
* 2.7s|    17 |    10 |  8408 | 315.8 |    LP  |  13 | 715 | 924 |1891 |3420 |  9 |  10 | 116 | 0.000000e+00 | 4.249413e+00 |    Inf |   0.31%
L 3.8s|    50 |    27 | 20132 | 342.4 |  subnlp|  13 | 715 | 949 |1877 |7435 |  5 |  37 | 191 | 0.000000e+00 | 4.203373e+00 |    Inf |   0.96%
* 3.8s|    51 |    26 | 20316 | 339.2 |    LP  |  13 | 715 | 949 |1989 |7600 | 10 |  37 | 191 | 0.000000e+00 | 4.203371e+00 |    Inf |   0.96%
  5.2s|   100 |    43 | 34375 | 313.3 |    27M |  16 | 715 | 963 |1792 |  12k|  8 |  52 | 243 | 0.000000e+00 | 4.203371e+00 |    Inf |   1.27%
d 5.9s|   117 |    50 | 42825 | 340.2 |pscostdi|  16 | 715 | 963 |1748 |  13k|  2 |  53 | 252 | 0.000000e+00 | 2.728222e+00 |    Inf |   2.38%
 time | node  | left  |LP iter|LP it/n|mem/heur|mdpt |vars |cons |rows |cuts |sepa|confs|strbr|  dualbound   | primalbound  |  gap   | compl. 
d 6.4s|   131 |    60 | 48977 | 350.9 |fracdivi|  16 | 715 | 966 |1935 |  15k|  4 |  56 | 264 | 0.000000e+00 | 2.204140e+00 |    Inf |   3.66%
d 8.1s|   180 |   106 | 72069 | 383.9 |nlpdivin|  16 | 715 | 969 |1902 |   0 |  5 |  62 | 272 | 0.000000e+00 | 1.694018e+00 |    Inf |   3.89%
  8.9s|   200 |   126 | 83788 | 404.2 |    39M |  16 | 715 | 982 |1894 |  23k|  8 |  76 | 272 | 0.000000e+00 | 1.694018e+00 |    Inf |   4.09%
 12.5s|   300 |   202 |138126 | 450.7 |    50M |  19 | 715 | 992 |1911 |  35k|  8 | 138 | 274 | 0.000000e+00 | 1.694018e+00 |    Inf |   5.79%
 15.6s|   400 |   254 |176211 | 433.2 |    59M |  21 | 715 | 995 |1982 |  45k|  6 | 174 | 276 | 0.000000e+00 | 1.694018e+00 |    Inf |   8.75%
 17.8s|   500 |   314 |203886 | 401.9 |    64M |  25 | 715 | 996 |1786 |  52k|  2 | 202 | 276 | 0.000000e+00 | 1.694018e+00 |    Inf |  10.18%
L19.0s|   549 |   290 |217515 | 390.8 |    rins|  25 | 715 | 996 |2214 |  56k|  9 | 214 | 276 | 0.000000e+00 | 1.394800e+00 |    Inf |  12.69%
 20.0s|   600 |   309 |233132 | 383.6 |    67M |  26 | 715 | 998 |1780 |  60k|  8 | 231 | 276 | 0.000000e+00 | 1.394800e+00 |    Inf |  13.55%
 22.1s|   700 |   347 |261919 | 369.9 |    70M |  26 | 715 | 999 |1919 |  67k|  6 | 258 | 276 | 0.000000e+00 | 1.394800e+00 |    Inf |  15.32%
 24.4s|   800 |   395 |290297 | 359.1 |    77M |  26 | 715 |1000 |1915 |  75k|  2 | 289 | 276 | 0.000000e+00 | 1.394800e+00 |    Inf |  16.19%
 26.4s|   900 |   437 |319582 | 351.8 |    80M |  26 | 715 |1004 |1783 |  82k|  2 | 317 | 276 | 0.000000e+00 | 1.394800e+00 |    Inf |  17.80%
 28.5s|  1000 |   477 |350380 | 347.4 |    84M |  26 | 715 |1005 |2043 |  92k|  0 | 344 | 276 | 0.000000e+00 | 1.394800e+00 |    Inf |  19.21%
 30.5s|  1100 |   519 |378857 | 341.7 |    89M |  28 | 715 |1007 |2169 | 100k|  2 | 372 | 276 | 0.000000e+00 | 1.394800e+00 |    Inf |  20.43%
 32.6s|  1200 |   565 |408343 | 337.8 |    95M |  28 | 715 |1007 |1816 | 108k|  2 | 394 | 280 | 0.000000e+00 | 1.394800e+00 |    Inf |  21.03%
 34.2s|  1300 |   593 |427996 | 326.9 |    95M |  30 | 715 |1010 |1879 | 114k|  7 | 426 | 287 | 0.000000e+00 | 1.394800e+00 |    Inf |  21.54%
 time | node  | left  |LP iter|LP it/n|mem/heur|mdpt |vars |cons |rows |cuts |sepa|confs|strbr|  dualbound   | primalbound  |  gap   | compl. 
 36.4s|  1400 |   637 |457094 | 324.3 |   100M |  30 | 715 |1011 |2038 | 122k|  7 | 444 | 290 | 0.000000e+00 | 1.394800e+00 |    Inf |  22.03%
 38.5s|  1500 |   665 |482767 | 319.8 |   102M |  30 | 715 |1011 |1955 | 129k|  6 | 461 | 294 | 0.000000e+00 | 1.394800e+00 |    Inf |  23.00%
 40.3s|  1600 |   711 |505757 | 314.2 |   106M |  30 | 715 |1011 |2062 | 135k|  0 | 496 | 296 | 1.750567e-04 | 1.394800e+00 |  Large |  23.63%
 41.8s|  1700 |   725 |523429 | 306.1 |   107M |  30 | 715 |1011 |2066 | 141k|  6 | 513 | 298 | 1.750567e-04 | 1.394800e+00 |  Large |  23.79%
 43.5s|  1800 |   741 |545093 | 301.1 |   110M |  30 | 715 |1012 |2093 | 148k|  0 | 531 | 299 | 8.266916e-04 | 1.394800e+00 |  Large |  24.32%
*44.5s|  1851 |   720 |557363 | 299.5 |    LP  |  30 | 715 |1006 |2214 | 152k| 10 | 546 | 302 | 1.633159e-03 | 1.314261e+00 |  Large |  25.67%
 45.1s|  1900 |   725 |563793 | 295.1 |   111M |  30 | 715 |1006 |2242 | 154k|  7 | 552 | 303 | 1.633159e-03 | 1.314261e+00 |  Large |  26.22%
 46.5s|  2000 |   741 |582666 | 289.8 |   114M |  30 | 715 |1007 |2018 | 161k|  5 | 569 | 307 | 2.893370e-03 | 1.314261e+00 |  Large |  27.37%
 47.8s|  2100 |   761 |599709 | 284.1 |   115M |  30 | 715 |1008 |2205 | 166k|  0 | 587 | 308 | 6.400800e-03 | 1.314261e+00 |  Large |  27.79%
 49.2s|  2200 |   763 |615748 | 278.5 |   121M |  30 | 715 |1009 |2140 | 171k|  0 | 608 | 308 | 6.400800e-03 | 1.314261e+00 |  Large |  28.50%
 51.0s|  2300 |   783 |638766 | 276.4 |   124M |  31 | 715 |1010 |2282 | 178k|  6 | 630 | 310 | 9.596554e-03 | 1.314261e+00 |  Large |  29.58%
 52.8s|  2400 |   799 |662001 | 274.5 |   127M |  32 | 715 |1013 |2178 | 184k|  8 | 657 | 318 | 1.318546e-02 | 1.314261e+00 |9867.50%|  30.65%
 54.4s|  2500 |   829 |682008 | 271.6 |   129M |  32 | 715 |1017 |1954 | 190k|  2 | 685 | 325 | 1.318842e-02 | 1.314261e+00 |9865.26%|  30.99%
 55.7s|  2600 |   845 |697775 | 267.2 |   129M |  32 | 715 |1017 |1606 | 196k|  0 | 697 | 329 | 1.477449e-02 | 1.314261e+00 |8795.48%|  31.27%
 56.9s|  2700 |   855 |712697 | 262.8 |   131M |  32 | 715 |1020 |2092 | 201k|  5 | 721 | 331 | 1.842077e-02 | 1.314261e+00 |7034.67%|  32.86%
 time | node  | left  |LP iter|LP it/n|mem/heur|mdpt |vars |cons |rows |cuts |sepa|confs|strbr|  dualbound   | primalbound  |  gap   | compl. 
 58.6s|  2800 |   883 |732774 | 260.6 |   136M |  32 | 715 |1020 |2123 | 208k|  0 | 745 | 335 | 1.928454e-02 | 1.314261e+00 |6715.10%|  33.08%
 60.5s|  2900 |   907 |757231 | 260.0 |   140M |  32 | 715 |1022 |1964 | 214k| 10 | 772 | 344 | 2.675500e-02 | 1.314261e+00 |4812.21%|  34.50%
 62.2s|  3000 |   917 |779249 | 258.7 |   140M |  32 | 715 |1024 |2219 | 221k|  6 | 798 | 350 | 3.085178e-02 | 1.314261e+00 |4159.92%|  35.09%
 63.7s|  3100 |   937 |797442 | 256.2 |   143M |  32 | 715 |1024 |1916 | 227k|  7 | 824 | 355 | 3.085178e-02 | 1.314261e+00 |4159.92%|  35.50%
 65.3s|  3200 |   947 |816096 | 254.1 |   144M |  32 | 715 |1027 |2092 | 232k|  2 | 852 | 360 | 3.252508e-02 | 1.314261e+00 |3940.76%|  36.16%
 66.8s|  3300 |   965 |836082 | 252.4 |   146M |  32 | 715 |1027 |2074 | 239k|  0 | 867 | 360 | 3.363541e-02 | 1.314261e+00 |3807.37%|  36.65%
*67.3s|  3346 |   950 |840938 | 250.4 |    LP  |  32 | 715 |1010 |2352 | 241k|  9 | 871 | 361 | 3.363801e-02 | 1.291857e+00 |3740.47%|  36.85%
*67.6s|  3372 |   935 |843794 | 249.3 |    LP  |  32 | 715 |1010 |2196 | 242k| 10 | 874 | 362 | 3.363801e-02 | 1.278898e+00 |3701.94%|  36.89%
 67.8s|  3400 |   931 |846293 | 248.0 |   146M |  32 | 715 |1010 |1846 | 243k|  0 | 877 | 363 | 3.363801e-02 | 1.278898e+00 |3701.94%|  37.05%
 69.1s|  3500 |   933 |862768 | 245.6 |   150M |  32 | 715 |1010 |2045 | 248k|  7 | 893 | 364 | 4.402760e-02 | 1.278898e+00 |2804.76%|  38.92%
 70.4s|  3600 |   949 |878894 | 243.3 |   151M |  32 | 715 |1010 |1931 | 254k|  1 | 903 | 368 | 4.413218e-02 | 1.278898e+00 |2797.88%|  39.22%
 72.1s|  3700 |   965 |896350 | 241.4 |   153M |  32 | 715 |1010 |2052 | 259k|  0 | 924 | 372 | 4.413218e-02 | 1.278898e+00 |2797.88%|  39.67%
 73.4s|  3800 |   971 |912922 | 239.4 |   154M |  32 | 715 |1010 |1917 | 265k|  3 | 937 | 375 | 4.829199e-02 | 1.278898e+00 |2548.26%|  44.93%
 74.9s|  3900 |   979 |932742 | 238.4 |   156M |  32 | 715 |1012 |2187 | 270k|  4 | 958 | 379 | 4.957533e-02 | 1.278898e+00 |2479.71%|  46.41%
 76.4s|  4000 |   981 |948060 | 236.2 |   158M |  32 | 715 |1013 |2007 | 276k|  6 | 971 | 380 | 4.957533e-02 | 1.278898e+00 |2479.71%|  47.28%
 time | node  | left  |LP iter|LP it/n|mem/heur|mdpt |vars |cons |rows |cuts |sepa|confs|strbr|  dualbound   | primalbound  |  gap   | compl. 
 77.7s|  4100 |   983 |963672 | 234.3 |   159M |  33 | 715 |1013 |1984 | 281k|  7 | 988 | 382 | 5.790691e-02 | 1.278898e+00 |2108.54%|  48.21%
 78.8s|  4200 |   987 |978135 | 232.1 |   161M |  33 | 715 |1013 |2157 | 286k|  5 |1002 | 382 | 7.309082e-02 | 1.278898e+00 |1649.74%|  48.74%
 79.9s|  4300 |   993 |991194 | 229.8 |   163M |  33 | 715 |1013 |1877 | 291k|  0 |1010 | 384 | 7.309082e-02 | 1.278898e+00 |1649.74%|  49.13%
 81.6s|  4400 |  1007 |  1010k| 229.0 |   164M |  33 | 715 |1015 |2156 | 296k|  7 |1032 | 390 | 8.353942e-02 | 1.278898e+00 |1430.89%|  49.65%
 83.0s|  4500 |  1007 |  1027k| 227.6 |   166M |  33 | 715 |1017 |2069 | 302k|  0 |1047 | 393 | 9.095871e-02 | 1.278898e+00 |1306.02%|  50.51%
 84.6s|  4600 |  1017 |  1046k| 226.7 |   169M |  33 | 715 |1019 |2174 | 307k|  0 |1067 | 402 | 1.066994e-01 | 1.278898e+00 |1098.60%|  50.95%
 86.1s|  4700 |  1017 |  1062k| 225.4 |   174M |  33 | 715 |1019 |2101 | 313k|  4 |1083 | 407 | 1.149083e-01 | 1.278898e+00 |1012.97%|  51.89%
 87.5s|  4800 |  1015 |  1077k| 223.8 |   175M |  33 | 715 |1019 |2186 | 318k|  6 |1097 | 415 | 1.149432e-01 | 1.278898e+00 |1012.63%|  52.48%
 88.6s|  4900 |  1009 |  1090k| 221.9 |   175M |  33 | 715 |1022 |2077 | 322k|  0 |1114 | 419 | 1.324317e-01 | 1.278898e+00 | 865.70%|  53.62%
 90.0s|  5000 |  1029 |  1106k| 220.6 |   175M |  33 | 715 |1022 |2122 | 327k|  6 |1131 | 422 | 1.372554e-01 | 1.278898e+00 | 831.76%|  53.94%
 91.1s|  5100 |  1033 |  1119k| 219.0 |   177M |  33 | 715 |1022 |2037 | 332k|  1 |1144 | 423 | 1.417322e-01 | 1.278898e+00 | 802.33%|  54.35%
 92.2s|  5200 |  1035 |  1133k| 217.4 |   177M |  33 | 715 |1022 |2063 | 337k|  0 |1155 | 424 | 1.417322e-01 | 1.278898e+00 | 802.33%|  54.72%
 93.6s|  5300 |  1031 |  1150k| 216.4 |   178M |  33 | 715 |1023 |2113 | 342k|  2 |1169 | 425 | 1.444170e-01 | 1.278898e+00 | 785.56%|  55.51%
 94.8s|  5400 |  1031 |  1164k| 215.0 |   187M |  33 | 715 |1023 |2118 | 347k|  2 |1185 | 429 | 1.444170e-01 | 1.278898e+00 | 785.56%|  56.15%
 96.4s|  5500 |  1039 |  1182k| 214.5 |   188M |  33 | 715 |1026 |1990 | 353k|  0 |1206 | 435 | 1.552891e-01 | 1.278898e+00 | 723.56%|  56.85%
 time | node  | left  |LP iter|LP it/n|mem/heur|mdpt |vars |cons |rows |cuts |sepa|confs|strbr|  dualbound   | primalbound  |  gap   | compl. 
 97.8s|  5600 |  1043 |  1199k| 213.7 |   188M |  33 | 715 |1026 |1898 | 359k|  7 |1216 | 438 | 1.553366e-01 | 1.278898e+00 | 723.31%|  57.23%
 98.9s|  5700 |  1039 |  1212k| 212.2 |   188M |  33 | 715 |1027 |2102 | 363k|  0 |1233 | 442 | 1.685165e-01 | 1.278898e+00 | 658.92%|  57.51%
  100s|  5800 |  1033 |  1228k| 211.3 |   192M |  33 | 715 |1028 |2167 | 368k|  8 |1248 | 443 | 1.800507e-01 | 1.278898e+00 | 610.30%|  58.32%
  101s|  5900 |  1021 |  1241k| 209.9 |   192M |  33 | 715 |1028 |2044 | 373k|  0 |1262 | 447 | 1.841108e-01 | 1.278898e+00 | 594.63%|  59.25%
  103s|  6000 |  1027 |  1257k| 209.0 |   192M |  33 | 715 |1028 |1996 | 378k|  7 |1277 | 449 | 1.847356e-01 | 1.278898e+00 | 592.29%|  59.64%
  104s|  6100 |  1033 |  1271k| 207.9 |   194M |  33 | 715 |1028 |2065 | 383k|  7 |1294 | 454 | 1.880378e-01 | 1.278898e+00 | 580.13%|  60.04%
  105s|  6200 |  1023 |  1287k| 207.1 |   194M |  33 | 715 |1028 |2241 | 388k|  2 |1308 | 456 | 1.908191e-01 | 1.278898e+00 | 570.21%|  60.88%
  107s|  6300 |  1017 |  1301k| 206.0 |   194M |  33 | 715 |1029 |1953 | 393k|  7 |1325 | 464 | 2.082579e-01 | 1.278898e+00 | 514.09%|  61.52%
  108s|  6400 |  1019 |  1313k| 204.8 |   196M |  33 | 715 |1029 |2124 | 397k|  5 |1340 | 471 | 2.318736e-01 | 1.278898e+00 | 451.55%|  62.08%
  109s|  6500 |  1013 |  1328k| 203.9 |   197M |  33 | 715 |1029 |1804 | 402k|  2 |1352 | 475 | 2.324226e-01 | 1.278898e+00 | 450.25%|  62.80%
  110s|  6600 |   999 |  1339k| 202.5 |   197M |  33 | 715 |1029 |2078 | 406k|  1 |1360 | 475 | 2.415638e-01 | 1.278898e+00 | 429.42%|  63.53%
  111s|  6700 |   981 |  1352k| 201.3 |   197M |  33 | 715 |1030 |2069 | 410k|  0 |1378 | 479 | 2.443154e-01 | 1.278898e+00 | 423.46%|  64.78%
  112s|  6800 |   965 |  1364k| 200.2 |   197M |  33 | 715 |1031 |2308 | 414k|  6 |1394 | 483 | 2.720636e-01 | 1.278898e+00 | 370.07%|  65.32%
  114s|  6900 |   949 |  1380k| 199.6 |   205M |  33 | 715 |1031 |1837 | 419k|  4 |1420 | 490 | 2.789034e-01 | 1.278898e+00 | 358.54%|  66.21%
  115s|  7000 |   945 |  1393k| 198.7 |   205M |  33 | 715 |1031 |1936 | 424k|  0 |1439 | 491 | 2.789163e-01 | 1.278898e+00 | 358.52%|  66.77%
 time | node  | left  |LP iter|LP it/n|mem/heur|mdpt |vars |cons |rows |cuts |sepa|confs|strbr|  dualbound   | primalbound  |  gap   | compl. 
  116s|  7100 |   945 |  1406k| 197.6 |   205M |  33 | 715 |1032 |2210 | 428k|  6 |1453 | 495 | 2.798850e-01 | 1.278898e+00 | 356.94%|  67.23%
  117s|  7200 |   942 |  1421k| 196.9 |   205M |  33 | 715 |1033 |2076 | 433k|  0 |1470 | 501 | 3.038081e-01 | 1.278898e+00 | 320.96%|  68.22%
  118s|  7300 |   936 |  1435k| 196.2 |   207M |  33 | 715 |1033 |2117 | 438k|  0 |1484 | 507 | 3.197185e-01 | 1.278898e+00 | 300.01%|  68.66%
  120s|  7400 |   942 |  1449k| 195.4 |   207M |  33 | 715 |1033 |2178 | 443k|  6 |1495 | 511 | 3.352685e-01 | 1.278898e+00 | 281.45%|  68.86%
  121s|  7500 |   928 |  1460k| 194.3 |   207M |  33 | 715 |1034 |2233 | 446k|  0 |1506 | 515 | 3.436317e-01 | 1.278898e+00 | 272.17%|  69.17%
  122s|  7600 |   917 |  1473k| 193.5 |   207M |  33 | 715 |1034 |2218 | 451k|  7 |1520 | 518 | 3.607323e-01 | 1.278898e+00 | 254.53%|  70.02%
  123s|  7700 |   897 |  1487k| 192.7 |   207M |  33 | 715 |1036 |2141 | 455k|  0 |1542 | 525 | 3.817305e-01 | 1.278898e+00 | 235.03%|  70.81%
  124s|  7800 |   895 |  1499k| 191.8 |   207M |  33 | 715 |1036 |2140 | 460k|  0 |1550 | 525 | 3.904264e-01 | 1.278898e+00 | 227.56%|  71.12%
  125s|  7900 |   889 |  1512k| 191.0 |   209M |  33 | 715 |1036 |2178 | 464k|  6 |1566 | 528 | 4.076380e-01 | 1.278898e+00 | 213.73%|  71.84%
  127s|  8000 |   895 |  1527k| 190.6 |   210M |  33 | 715 |1039 |2002 | 469k|  0 |1585 | 537 | 4.097510e-01 | 1.278898e+00 | 212.12%|  72.40%
  128s|  8100 |   898 |  1544k| 190.3 |   213M |  33 | 715 |1039 |1954 | 474k|  0 |1591 | 542 | 4.330470e-01 | 1.278898e+00 | 195.33%|  72.73%
  129s|  8200 |   892 |  1553k| 189.1 |   213M |  33 | 715 |1039 |1997 | 477k|  0 |1600 | 544 | 4.370012e-01 | 1.278898e+00 | 192.65%|  73.25%
  130s|  8300 |   882 |  1563k| 188.0 |   213M |  33 | 715 |1041 |2134 | 481k|  6 |1617 | 546 | 4.407285e-01 | 1.278898e+00 | 190.18%|  73.75%
  131s|  8400 |   868 |  1573k| 187.0 |   213M |  36 | 715 |1041 |2066 | 484k|  1 |1631 | 547 | 4.539447e-01 | 1.278898e+00 | 181.73%|  74.20%
  132s|  8500 |   830 |  1583k| 185.9 |   213M |  36 | 715 |1041 |2448 | 487k|  0 |1650 | 550 | 4.733879e-01 | 1.278898e+00 | 170.16%|  74.96%
 time | node  | left  |LP iter|LP it/n|mem/heur|mdpt |vars |cons |rows |cuts |sepa|confs|strbr|  dualbound   | primalbound  |  gap   | compl. 
  133s|  8600 |   820 |  1593k| 185.0 |   213M |  36 | 715 |1041 |2095 | 491k|  6 |1658 | 553 | 4.787399e-01 | 1.278898e+00 | 167.14%|  75.38%
  134s|  8700 |   818 |  1605k| 184.2 |   214M |  36 | 715 |1043 |2071 | 495k|  0 |1667 | 555 | 4.877263e-01 | 1.278898e+00 | 162.22%|  76.13%
  135s|  8800 |   788 |  1616k| 183.3 |   216M |  36 | 715 |1046 |3519 | 498k|  8 |1683 | 557 | 5.082128e-01 | 1.278898e+00 | 151.65%|  76.77%
  136s|  8900 |   776 |  1629k| 182.7 |   216M |  36 | 715 |1046 |2000 | 502k|  7 |1696 | 560 | 5.211995e-01 | 1.278898e+00 | 145.38%|  77.35%
  137s|  9000 |   756 |  1639k| 181.8 |   216M |  36 | 715 |1046 |2254 | 506k|  6 |1714 | 562 | 5.279304e-01 | 1.278898e+00 | 142.25%|  77.84%
  138s|  9100 |   726 |  1650k| 181.0 |   217M |  36 | 715 |1047 |1960 | 509k| 11 |1728 | 564 | 5.298248e-01 | 1.278898e+00 | 141.38%|  78.73%
  139s|  9200 |   704 |  1660k| 180.1 |   217M |  36 | 715 |1047 |1952 | 513k|  0 |1744 | 568 | 5.333233e-01 | 1.278898e+00 | 139.80%|  79.19%
  140s|  9300 |   670 |  1672k| 179.5 |   217M |  36 | 715 |1048 |2100 | 516k|  0 |1765 | 573 | 5.541575e-01 | 1.278898e+00 | 130.78%|  80.03%
  142s|  9400 |   652 |  1683k| 178.8 |   217M |  36 | 715 |1048 |2037 | 520k|  6 |1776 | 579 | 5.858943e-01 | 1.278898e+00 | 118.28%|  80.70%
  143s|  9500 |   632 |  1695k| 178.2 |   217M |  36 | 715 |1049 |2185 | 524k|  2 |1788 | 581 | 5.907370e-01 | 1.278898e+00 | 116.49%|  81.05%
  144s|  9600 |   610 |  1706k| 177.4 |   217M |  36 | 715 |1049 |2073 | 527k|  0 |1803 | 584 | 6.136706e-01 | 1.278898e+00 | 108.40%|  81.52%
  145s|  9700 |   594 |  1720k| 177.0 |   218M |  36 | 715 |1050 |2045 | 532k|  1 |1818 | 585 | 6.162916e-01 | 1.278898e+00 | 107.51%|  81.89%
  146s|  9800 |   576 |  1732k| 176.5 |   218M |  36 | 715 |1050 |3947 | 535k|  3 |1835 | 590 | 6.241015e-01 | 1.278898e+00 | 104.92%|  82.31%
  147s|  9900 |   554 |  1742k| 175.7 |   218M |  36 | 715 |1050 |2218 | 538k|  5 |1852 | 594 | 6.342108e-01 | 1.278898e+00 | 101.65%|  83.39%
  148s| 10000 |   526 |  1752k| 175.0 |   218M |  36 | 715 |1051 |2056 | 542k|  6 |1863 | 597 | 6.439322e-01 | 1.278898e+00 |  98.61%|  83.88%
 time | node  | left  |LP iter|LP it/n|mem/heur|mdpt |vars |cons |rows |cuts |sepa|confs|strbr|  dualbound   | primalbound  |  gap   | compl. 
  149s| 10100 |   506 |  1766k| 174.6 |   220M |  36 | 715 |1054 |2088 | 546k|  6 |1884 | 605 | 6.453793e-01 | 1.278898e+00 |  98.16%|  84.37%
  150s| 10200 |   466 |  1774k| 173.7 |   220M |  36 | 715 |1055 |2658 | 549k|  0 |1895 | 606 | 6.769609e-01 | 1.278898e+00 |  88.92%|  85.67%
  151s| 10300 |   436 |  1786k| 173.1 |   220M |  36 | 715 |1057 |2057 | 552k|  0 |1909 | 609 | 7.051926e-01 | 1.278898e+00 |  81.35%|  87.16%
  152s| 10400 |   408 |  1796k| 172.4 |   229M |  36 | 715 |1057 |2943 | 555k|  5 |1924 | 610 | 7.192795e-01 | 1.278898e+00 |  77.80%|  87.94%
  153s| 10500 |   379 |  1805k| 171.6 |   230M |  36 | 715 |1057 |2523 | 557k|  2 |1936 | 614 | 7.275006e-01 | 1.278898e+00 |  75.79%|  88.45%
  154s| 10600 |   349 |  1817k| 171.1 |   230M |  36 | 715 |1061 |2075 | 561k|  0 |1952 | 615 | 7.470722e-01 | 1.278898e+00 |  71.19%|  89.79%
  155s| 10700 |   312 |  1826k| 170.4 |   230M |  36 | 715 |1062 |2071 | 564k|  6 |1969 | 618 | 7.527604e-01 | 1.278898e+00 |  69.89%|  90.48%
  156s| 10800 |   274 |  1835k| 169.7 |   230M |  36 | 715 |1063 |1871 | 566k|  0 |1983 | 622 | 7.710347e-01 | 1.278898e+00 |  65.87%|  91.53%
  157s| 10900 |   242 |  1844k| 168.9 |   230M |  36 | 715 |1064 |1889 | 569k|  6 |1998 | 626 | 8.216084e-01 | 1.278898e+00 |  55.66%|  92.37%
  159s| 11000 |   199 |  1856k| 168.5 |   230M |  36 | 715 |1064 |3632 | 572k|  2 |2013 | 631 | 8.320560e-01 | 1.278898e+00 |  53.70%|  93.64%
  160s| 11100 |   161 |  1866k| 167.8 |   230M |  36 | 715 |1064 |1981 | 574k|  7 |2026 | 633 | 8.570362e-01 | 1.278898e+00 |  49.22%|  94.33%
  161s| 11200 |   125 |  1876k| 167.3 |   233M |  36 | 715 |1064 |1936 | 577k|  0 |2041 | 641 | 9.076984e-01 | 1.278898e+00 |  40.89%|  94.96%
  162s| 11300 |   101 |  1888k| 166.9 |   233M |  36 | 715 |1066 |2078 | 580k|  0 |2058 | 643 | 9.221885e-01 | 1.278898e+00 |  38.68%|  95.90%
  163s| 11400 |    60 |  1898k| 166.2 |   233M |  36 | 715 |1068 |2586 | 582k|  0 |2073 | 645 | 9.485648e-01 | 1.278898e+00 |  34.82%|  96.45%
  164s| 11500 |     6 |  1908k| 165.7 |   235M |  36 | 715 |1029 |1764 | 584k|  0 |2087 | 647 | 1.158751e+00 | 1.278898e+00 |  10.37%|  99.48%

SCIP Status        : problem is solved [optimal solution found]
Solving Time (sec) : 164.54
Solving Nodes      : 11508
Primal Bound       : +1.27889754698251e+00 (15 solutions)
Dual Bound         : +1.27889754698251e+00
Gap                : 0.00 %


--- Reading solution for model GAMS_MODEL
***
*** Solver did not provide marginals for model GAMS_MODEL
***
--- Executing after solve: elapsed 0:02:44.631
--- model.gms(3061) 4 Mb
--- model.gms(4512) 6 Mb
--- Putfile results /local/scratch/a/sgusev/repos/k_means/data/gams_scip_gdp.hull_exact_conic_no_cholesky/no_mode/2026-02-15_22-47-16/original/results.dat
--- Putfile statresults /local/scratch/a/sgusev/repos/k_means/data/gams_scip_gdp.hull_exact_conic_no_cholesky/no_mode/2026-02-15_22-47-16/original/resultsstat.dat
*** Status: Normal completion
--- Job model.gms Stop 02/15/26 22:50:01 elapsed 0:02:44.634
Original problem solved. Time taken: 165.40573930740356 seconds
Original objective value: 1.278897546982507
